istanza2.log

Gurobi 9.5.1 (linux64, Java) logging started mer 8 feb 2023, 20:03:26

Set parameter Username
Academic license - for non-commercial use only - expires 2023-12-01
Gurobi Optimizer version 9.5.1 build v9.5.1rc2 (linux64)
Thread count: 2 physical cores, 4 logical processors, using up to 4 threads
Optimize a model with 357857 rows, 17150 columns and 1257450 nonzeros
Model fingerprint: 0x18db9b05
Variable types: 0 continuous, 17150 integer (17150 binary)
Coefficient statistics:
  Matrix range     [1e+00, 2e+01]
  Objective range  [1e+01, 3e+01]
  Bounds range     [1e+00, 1e+00]
  RHS range        [1e+00, 1e+03]
Presolve removed 2600 rows and 0 columns (presolve time = 5s) ...
Presolve removed 3800 rows and 0 columns
Presolve time: 6.95s
Presolved: 354057 rows, 17150 columns, 1226390 nonzeros
Variable types: 0 continuous, 17150 integer (17150 binary)

Deterministic concurrent LP optimizer: primal and dual simplex
Showing first log only...


Root simplex log...

Iteration    Objective       Primal Inf.    Dual Inf.      Time
       0      handle free variables                         15s
    2508    2.0925397e+32   6.250044e+32   2.092540e+02     15s
    4402    6.2800000e+04   0.000000e+00   0.000000e+00     15s
    4402    6.2800000e+04   0.000000e+00   0.000000e+00     16s

Use crossover to convert LP symmetric solution to basic solution...

Root crossover log...

       0 DPushes remaining with DInf 0.0000000e+00                28s

    1329 PPushes remaining with PInf 0.0000000e+00                28s
       0 PPushes remaining with PInf 0.0000000e+00                28s

  Push phase complete: Pinf 0.0000000e+00, Dinf 1.4028778e-12     28s


Root simplex log...

Iteration    Objective       Primal Inf.    Dual Inf.      Time
    5734    6.2800000e+04   0.000000e+00   0.000000e+00     29s
    5734    6.2800000e+04   0.000000e+00   0.000000e+00     30s
Concurrent spin time: 0.00s

Solved with primal simplex

Root relaxation: objective 6.280000e+04, 5734 iterations, 19.59 seconds (1.51 work units)
Total elapsed time = 35.96s
Total elapsed time = 41.01s
Total elapsed time = 47.40s

    Nodes    |    Current Node    |     Objective Bounds      |     Work
 Expl Unexpl |  Obj  Depth IntInf | Incumbent    BestBd   Gap | It/Node Time

     0     0 62800.0000    0  242          - 62800.0000      -     -   53s
H    0     0                    62970.000000 62800.0000  0.27%     -   60s
H    0     0                    62820.000000 62800.0000  0.03%     -   61s
     0     0 62800.0000    0  809 62820.0000 62800.0000  0.03%     -   82s
H    0     0                    62810.000000 62800.0000  0.02%     -   86s
     0     0 62800.0000    0  806 62810.0000 62800.0000  0.02%     -   87s
     0     0 62800.0000    0    6 62810.0000 62800.0000  0.02%     -  136s
H    0     0                    62800.000000 62800.0000  0.00%     -  138s
     0     0 62800.0000    0    6 62800.0000 62800.0000  0.00%     -  138s

Cutting planes:
  Gomory: 5
  Lift-and-project: 2
  Cover: 336
  Implied bound: 22
  Clique: 1372
  MIR: 450
  StrongCG: 31
  GUB cover: 8
  Zero half: 13
  RLT: 165
  BQP: 40

Explored 1 nodes (41528 simplex iterations) in 138.64 seconds (40.72 work units)
Thread count was 4 (of 4 available processors)

Solution count 4: 62800 62810 62820 62970 

Optimal solution found (tolerance 1.00e-04)
Best objective 6.280000000000e+04, best bound 6.280000000000e+04, gap 0.0000%
Warning: linear constraint 17651 and linear constraint 17652 have the same name "vincoloPausaMinimaTraTurni_giorno0_dip0_int3"

Gurobi 9.5.1 (linux64, Java) logging started mer 8 feb 2023, 20:10:25

Set parameter Username
Academic license - for non-commercial use only - expires 2023-12-01
Gurobi Optimizer version 9.5.1 build v9.5.1rc2 (linux64)
Thread count: 2 physical cores, 4 logical processors, using up to 4 threads
Optimize a model with 357857 rows, 17150 columns and 1257450 nonzeros
Model fingerprint: 0x18db9b05
Variable types: 0 continuous, 17150 integer (17150 binary)
Coefficient statistics:
  Matrix range     [1e+00, 2e+01]
  Objective range  [1e+01, 3e+01]
  Bounds range     [1e+00, 1e+00]
  RHS range        [1e+00, 1e+03]
Presolve removed 2600 rows and 0 columns (presolve time = 5s) ...
Presolve removed 3800 rows and 0 columns
Presolve time: 8.33s
Presolved: 354057 rows, 17150 columns, 1226390 nonzeros
Variable types: 0 continuous, 17150 integer (17150 binary)

Deterministic concurrent LP optimizer: primal and dual simplex
Showing first log only...


Root simplex log...

Iteration    Objective       Primal Inf.    Dual Inf.      Time
       0      handle free variables                         16s
    4402    6.2800000e+04   0.000000e+00   0.000000e+00     16s
    4402    6.2800000e+04   0.000000e+00   0.000000e+00     16s

Use crossover to convert LP symmetric solution to basic solution...

Root crossover log...

       0 DPushes remaining with DInf 0.0000000e+00                17s

    1329 PPushes remaining with PInf 0.0000000e+00                17s
       0 PPushes remaining with PInf 0.0000000e+00                18s

  Push phase complete: Pinf 0.0000000e+00, Dinf 1.4028778e-12     18s


Root simplex log...

Iteration    Objective       Primal Inf.    Dual Inf.      Time
    5734    6.2800000e+04   0.000000e+00   0.000000e+00     19s
    5734    6.2800000e+04   0.000000e+00   0.000000e+00     19s
Concurrent spin time: 0.02s

Solved with primal simplex

Root relaxation: objective 6.280000e+04, 5734 iterations, 7.78 seconds (1.51 work units)
Total elapsed time = 24.89s
Total elapsed time = 28.77s
Total elapsed time = 32.65s
Total elapsed time = 35.99s

    Nodes    |    Current Node    |     Objective Bounds      |     Work
 Expl Unexpl |  Obj  Depth IntInf | Incumbent    BestBd   Gap | It/Node Time

     0     0 62800.0000    0  242          - 62800.0000      -     -   42s
H    0     0                    62970.000000 62800.0000  0.27%     -   48s
H    0     0                    62820.000000 62800.0000  0.03%     -   49s
     0     0 62800.0000    0  809 62820.0000 62800.0000  0.03%     -   69s
H    0     0                    62810.000000 62800.0000  0.02%     -   72s
     0     0 62800.0000    0  806 62810.0000 62800.0000  0.02%     -   72s
     0     0 62800.0000    0    6 62810.0000 62800.0000  0.02%     -  129s
H    0     0                    62800.000000 62800.0000  0.00%     -  133s
     0     0 62800.0000    0    6 62800.0000 62800.0000  0.00%     -  133s

Cutting planes:
  Gomory: 5
  Lift-and-project: 2
  Cover: 336
  Implied bound: 22
  Clique: 1372
  MIR: 450
  StrongCG: 31
  GUB cover: 8
  Zero half: 13
  RLT: 165
  BQP: 40

Explored 1 nodes (41528 simplex iterations) in 133.09 seconds (40.72 work units)
Thread count was 4 (of 4 available processors)

Solution count 4: 62800 62810 62820 62970 

Optimal solution found (tolerance 1.00e-04)
Best objective 6.280000000000e+04, best bound 6.280000000000e+04, gap 0.0000%
Warning: linear constraint 17651 and linear constraint 17652 have the same name "vincoloPausaMinimaTraTurni_giorno0_dip0_int3"
Gurobi Optimizer version 9.5.1 build v9.5.1rc2 (linux64)
Thread count: 2 physical cores, 4 logical processors, using up to 4 threads
Optimize a model with 357857 rows, 17150 columns and 1257450 nonzeros
Model fingerprint: 0x18db9b05
Variable types: 0 continuous, 17150 integer (17150 binary)
Coefficient statistics:
  Matrix range     [1e+00, 2e+01]
  Objective range  [1e+01, 3e+01]
  Bounds range     [1e+00, 1e+00]
  RHS range        [1e+00, 1e+03]
Presolved: 354057 rows, 17150 columns, 1226390 nonzeros

Continuing optimization...


Cutting planes:
  Gomory: 5
  Lift-and-project: 2
  Cover: 336
  Implied bound: 22
  Clique: 1372
  MIR: 450
  StrongCG: 31
  GUB cover: 8
  Zero half: 13
  RLT: 165
  BQP: 40

Explored 1 nodes (41528 simplex iterations) in 5.82 seconds (0.15 work units)
Thread count was 4 (of 4 available processors)

Solution count 4: 62800 62810 62820 62970 

Optimal solution found (tolerance 1.00e-04)
Best objective 6.280000000000e+04, best bound 6.280000000000e+04, gap 0.0000%
Warning: linear constraint 17651 and linear constraint 17652 have the same name "vincoloPausaMinimaTraTurni_giorno0_dip0_int3"
